robust/generate/spp_dkp_Lefebvre_et_al_2026/src/shortest_path_4_5.kp
47
99

[1.12 9.65 7.21 3.48 7.01 7.92 6.39 4.1 6.99 2.44]

[32 49 89 93 55 67 24 99 33 64]
