robust/generate/spp_dkp_Lefebvre_et_al_2026/src/shortest_path_4_5.mps
* Signature: 0xdf8e95fb0fdc88e3
NAME sp_4_5
ROWS
 N  OBJ
 E  flow_cons_inner_nodes[1]
 E  flow_cons_inner_nodes[3]
 E  flow_cons_source
 E  flow_cons_target
 L  primal_lower
 L  mccormick1[0,1]
 L  mccormick1[0,3]
 L  mccormick1[1,0]
 L  mccormick1[1,2]
 L  mccormick1[1,3]
 L  mccormick1[2,1]
 L  mccormick1[2,3]
 L  mccormick1[3,0]
 L  mccormick1[3,1]
 L  mccormick1[3,2]
 L  mccormick2[0,1]
 L  mccormick2[0,3]
 L  mccormick2[1,0]
 L  mccormick2[1,2]
 L  mccormick2[1,3]
 L  mccormick2[2,1]
 L  mccormick2[2,3]
 L  mccormick2[3,0]
 L  mccormick2[3,1]
 L  mccormick2[3,2]
 G  mccormick3[0,1]
 G  mccormick3[0,3]
 G  mccormick3[1,0]
 G  mccormick3[1,2]
 G  mccormick3[1,3]
 G  mccormick3[2,1]
 G  mccormick3[2,3]
 G  mccormick3[3,0]
 G  mccormick3[3,1]
 G  mccormick3[3,2]
COLUMNS
    MARKER    'MARKER'                 'INTORG'
    y[0,1]    OBJ       62.8
    y[0,1]    flow_cons_inner_nodes[1]  1
    y[0,1]    flow_cons_source  1
    y[0,1]    primal_lower  -1.12
    y[0,1]    mccormick2[0,1]  -1
    y[0,1]    mccormick3[0,1]  -1
    y[0,3]    OBJ       24.08
    y[0,3]    flow_cons_inner_nodes[3]  1
    y[0,3]    flow_cons_source  1
    y[0,3]    primal_lower  -9.65
    y[0,3]    mccormick2[0,3]  -1
    y[0,3]    mccormick3[0,3]  -1
    y[1,0]    OBJ       62.8
    y[1,0]    flow_cons_inner_nodes[1]  -1
    y[1,0]    flow_cons_source  -1
    y[1,0]    primal_lower  -7.21
    y[1,0]    mccormick2[1,0]  -1
    y[1,0]    mccormick3[1,0]  -1
    y[1,2]    OBJ       4.24
    y[1,2]    flow_cons_inner_nodes[1]  -1
    y[1,2]    flow_cons_target  1
    y[1,2]    primal_lower  -3.48
    y[1,2]    mccormick2[1,2]  -1
    y[1,2]    mccormick3[1,2]  -1
    y[1,3]    OBJ       39.85
    y[1,3]    flow_cons_inner_nodes[1]  -1
    y[1,3]    flow_cons_inner_nodes[3]  1
    y[1,3]    primal_lower  -7.01
    y[1,3]    mccormick2[1,3]  -1
    y[1,3]    mccormick3[1,3]  -1
    y[2,1]    OBJ       4.24
    y[2,1]    flow_cons_inner_nodes[1]  1
    y[2,1]    flow_cons_target  -1
    y[2,1]    primal_lower  -7.92
    y[2,1]    mccormick2[2,1]  -1
    y[2,1]    mccormick3[2,1]  -1
    y[2,3]    OBJ       43.66
    y[2,3]    flow_cons_inner_nodes[3]  1
    y[2,3]    flow_cons_target  -1
    y[2,3]    primal_lower  -6.39
    y[2,3]    mccormick2[2,3]  -1
    y[2,3]    mccormick3[2,3]  -1
    y[3,0]    OBJ       24.08
    y[3,0]    flow_cons_inner_nodes[3]  -1
    y[3,0]    flow_cons_source  -1
    y[3,0]    primal_lower  -4.1
    y[3,0]    mccormick2[3,0]  -1
    y[3,0]    mccormick3[3,0]  -1
    y[3,1]    OBJ       39.85
    y[3,1]    flow_cons_inner_nodes[1]  1
    y[3,1]    flow_cons_inner_nodes[3]  -1
    y[3,1]    primal_lower  -6.99
    y[3,1]    mccormick2[3,1]  -1
    y[3,1]    mccormick3[3,1]  -1
    y[3,2]    OBJ       43.66
    y[3,2]    flow_cons_inner_nodes[3]  -1
    y[3,2]    flow_cons_target  1
    y[3,2]    primal_lower  -2.44
    y[3,2]    mccormick2[3,2]  -1
    y[3,2]    mccormick3[3,2]  -1
    u[0,1]    primal_lower  32
    u[0,1]    mccormick1[0,1]  -1
    u[0,1]    mccormick3[0,1]  -1
    u[0,3]    primal_lower  49
    u[0,3]    mccormick1[0,3]  -1
    u[0,3]    mccormick3[0,3]  -1
    u[1,0]    primal_lower  89
    u[1,0]    mccormick1[1,0]  -1
    u[1,0]    mccormick3[1,0]  -1
    u[1,2]    primal_lower  93
    u[1,2]    mccormick1[1,2]  -1
    u[1,2]    mccormick3[1,2]  -1
    u[1,3]    primal_lower  55
    u[1,3]    mccormick1[1,3]  -1
    u[1,3]    mccormick3[1,3]  -1
    u[2,1]    primal_lower  67
    u[2,1]    mccormick1[2,1]  -1
    u[2,1]    mccormick3[2,1]  -1
    u[2,3]    primal_lower  24
    u[2,3]    mccormick1[2,3]  -1
    u[2,3]    mccormick3[2,3]  -1
    u[3,0]    primal_lower  99
    u[3,0]    mccormick1[3,0]  -1
    u[3,0]    mccormick3[3,0]  -1
    u[3,1]    primal_lower  33
    u[3,1]    mccormick1[3,1]  -1
    u[3,1]    mccormick3[3,1]  -1
    u[3,2]    primal_lower  64
    u[3,2]    mccormick1[3,2]  -1
    u[3,2]    mccormick3[3,2]  -1
    r[0,1]    OBJ       6.28
    r[0,1]    mccormick1[0,1]  1
    r[0,1]    mccormick2[0,1]  1
    r[0,1]    mccormick3[0,1]  1
    r[0,3]    OBJ       2.408
    r[0,3]    mccormick1[0,3]  1
    r[0,3]    mccormick2[0,3]  1
    r[0,3]    mccormick3[0,3]  1
    r[1,0]    OBJ       6.28
    r[1,0]    mccormick1[1,0]  1
    r[1,0]    mccormick2[1,0]  1
    r[1,0]    mccormick3[1,0]  1
    r[1,2]    OBJ       4.2400000000000004e-01
    r[1,2]    mccormick1[1,2]  1
    r[1,2]    mccormick2[1,2]  1
    r[1,2]    mccormick3[1,2]  1
    r[1,3]    OBJ       3.9850000000000003e+00
    r[1,3]    mccormick1[1,3]  1
    r[1,3]    mccormick2[1,3]  1
    r[1,3]    mccormick3[1,3]  1
    r[2,1]    OBJ       4.2400000000000004e-01
    r[2,1]    mccormick1[2,1]  1
    r[2,1]    mccormick2[2,1]  1
    r[2,1]    mccormick3[2,1]  1
    r[2,3]    OBJ       4.366
    r[2,3]    mccormick1[2,3]  1
    r[2,3]    mccormick2[2,3]  1
    r[2,3]    mccormick3[2,3]  1
    r[3,0]    OBJ       2.408
    r[3,0]    mccormick1[3,0]  1
    r[3,0]    mccormick2[3,0]  1
    r[3,0]    mccormick3[3,0]  1
    r[3,1]    OBJ       3.9850000000000003e+00
    r[3,1]    mccormick1[3,1]  1
    r[3,1]    mccormick2[3,1]  1
    r[3,1]    mccormick3[3,1]  1
    r[3,2]    OBJ       4.366
    r[3,2]    mccormick1[3,2]  1
    r[3,2]    mccormick2[3,2]  1
    r[3,2]    mccormick3[3,2]  1
    MARKER    'MARKER'                 'INTEND'
RHS
    RHS1      flow_cons_source  1
    RHS1      flow_cons_target  1
    RHS1      primal_lower  99
    RHS1      mccormick3[0,1]  -1
    RHS1      mccormick3[0,3]  -1
    RHS1      mccormick3[1,0]  -1
    RHS1      mccormick3[1,2]  -1
    RHS1      mccormick3[1,3]  -1
    RHS1      mccormick3[2,1]  -1
    RHS1      mccormick3[2,3]  -1
    RHS1      mccormick3[3,0]  -1
    RHS1      mccormick3[3,1]  -1
    RHS1      mccormick3[3,2]  -1
BOUNDS
 BV BND1      y[0,1]  
 BV BND1      y[0,3]  
 BV BND1      y[1,0]  
 BV BND1      y[1,2]  
 BV BND1      y[1,3]  
 BV BND1      y[2,1]  
 BV BND1      y[2,3]  
 BV BND1      y[3,0]  
 BV BND1      y[3,1]  
 BV BND1      y[3,2]  
 BV BND1      u[0,1]  
 BV BND1      u[0,3]  
 BV BND1      u[1,0]  
 BV BND1      u[1,2]  
 BV BND1      u[1,3]  
 BV BND1      u[2,1]  
 BV BND1      u[2,3]  
 BV BND1      u[3,0]  
 BV BND1      u[3,1]  
 BV BND1      u[3,2]  
 BV BND1      r[0,1]  
 BV BND1      r[0,3]  
 BV BND1      r[1,0]  
 BV BND1      r[1,2]  
 BV BND1      r[1,3]  
 BV BND1      r[2,1]  
 BV BND1      r[2,3]  
 BV BND1      r[3,0]  
 BV BND1      r[3,1]  
 BV BND1      r[3,2]  
ENDATA
